set STOCKS := OEX1 OEX2 OEX3 AAPL2 AAPL AAPL3 AAPL1 JPM2 JPM JPM1;

param r :=
    OEX1 0.000377
    OEX2 0.000317
    OEX3 0.000403
    AAPL2 0.001113
    AAPL 0.001104
    AAPL3 0.001199
    AAPL1 0.001223
    JPM2 0.000900
    JPM 0.000910
    JPM1 0.000990
;

param target_return := 0.000334;
